Results/Experiment 1 Results/New Benchmark/RES_40/output_p1_0.00_p2_0.00_n_40_10.txt
solutions: 5184 nodes: 9418  modelTime: 135  solveTime: 133  totalTime: 275  modelSize: 7389  readTime: 7 matchingSize: 20
